c Standarized MaxSat Instance
c{
c "sha1sum": "5a66c9d9698575e9f6cb89f79495cf24b0686f65",
c "nvars": 60,
c "ncls": 1200,
c "total_lits": 2400,
c "nhards": 0,
c "nhard_nlits": 0,
c "nhard_len_stats":
c    { "min": 0,
c      "max": 0,
c      "ave": 0.0000,
c      "stddev": 0.0000 },
c "nsofts": 1200,
c "nsoft_nlits": 2400,
c "nsoft_len_stats":
c    { "min": 2,
c      "max": 2,
c      "ave": 2.0000,
c      "stddev": 0.0000 },
c "nsoft_wts": 1,
c "soft_wt_stats":
c    { "min": 1,
c      "max": 1,
c      "ave": 1.0000,
c      "stddev": 0.0000 }
c}
c------------------------------------------------------------
c Generated after 1 tries
c Graph with 60 nodes and 600 edges, Max edges:1770
1 1 12 0
1 -1 -12 0
1 1 17 0
1 -1 -17 0
1 1 19 0
1 -1 -19 0
1 1 20 0
1 -1 -20 0
1 1 24 0
1 -1 -24 0
1 1 30 0
1 -1 -30 0
1 1 34 0
1 -1 -34 0
1 1 35 0
1 -1 -35 0
1 1 36 0
1 -1 -36 0
1 1 38 0
1 -1 -38 0
1 1 41 0
1 -1 -41 0
1 1 42 0
1 -1 -42 0
1 1 43 0
1 -1 -43 0
1 1 45 0
1 -1 -45 0
1 1 49 0
1 -1 -49 0
1 1 51 0
1 -1 -51 0
1 1 55 0
1 -1 -55 0
1 1 59 0
1 -1 -59 0
1 2 3 0
1 -2 -3 0
1 2 5 0
1 -2 -5 0
1 2 8 0
1 -2 -8 0
1 2 9 0
1 -2 -9 0
1 2 10 0
1 -2 -10 0
1 2 11 0
1 -2 -11 0
1 2 19 0
1 -2 -19 0
1 2 21 0
1 -2 -21 0
1 2 22 0
1 -2 -22 0
1 2 29 0
1 -2 -29 0
1 2 32 0
1 -2 -32 0
1 2 35 0
1 -2 -35 0
1 2 40 0
1 -2 -40 0
1 2 41 0
1 -2 -41 0
1 2 42 0
1 -2 -42 0
1 2 49 0
1 -2 -49 0
1 2 50 0
1 -2 -50 0
1 2 55 0
1 -2 -55 0
1 2 60 0
1 -2 -60 0
1 3 6 0
1 -3 -6 0
1 3 7 0
1 -3 -7 0
1 3 13 0
1 -3 -13 0
1 3 22 0
1 -3 -22 0
1 3 27 0
1 -3 -27 0
1 3 30 0
1 -3 -30 0
1 3 36 0
1 -3 -36 0
1 3 39 0
1 -3 -39 0
1 3 40 0
1 -3 -40 0
1 3 43 0
1 -3 -43 0
1 3 46 0
1 -3 -46 0
1 3 47 0
1 -3 -47 0
1 3 52 0
1 -3 -52 0
1 3 53 0
1 -3 -53 0
1 3 54 0
1 -3 -54 0
1 3 56 0
1 -3 -56 0
1 3 57 0
1 -3 -57 0
1 3 60 0
1 -3 -60 0
1 4 6 0
1 -4 -6 0
1 4 7 0
1 -4 -7 0
1 4 8 0
1 -4 -8 0
1 4 17 0
1 -4 -17 0
1 4 18 0
1 -4 -18 0
1 4 24 0
1 -4 -24 0
1 4 26 0
1 -4 -26 0
1 4 32 0
1 -4 -32 0
1 4 39 0
1 -4 -39 0
1 4 40 0
1 -4 -40 0
1 4 41 0
1 -4 -41 0
1 4 45 0
1 -4 -45 0
1 4 47 0
1 -4 -47 0
1 4 51 0
1 -4 -51 0
1 4 54 0
1 -4 -54 0
1 4 57 0
1 -4 -57 0
1 4 58 0
1 -4 -58 0
1 4 60 0
1 -4 -60 0
1 5 7 0
1 -5 -7 0
1 5 12 0
1 -5 -12 0
1 5 13 0
1 -5 -13 0
1 5 25 0
1 -5 -25 0
1 5 29 0
1 -5 -29 0
1 5 31 0
1 -5 -31 0
1 5 33 0
1 -5 -33 0
1 5 35 0
1 -5 -35 0
1 5 46 0
1 -5 -46 0
1 5 48 0
1 -5 -48 0
1 5 49 0
1 -5 -49 0
1 5 51 0
1 -5 -51 0
1 5 52 0
1 -5 -52 0
1 5 53 0
1 -5 -53 0
1 5 57 0
1 -5 -57 0
1 5 59 0
1 -5 -59 0
1 6 9 0
1 -6 -9 0
1 6 12 0
1 -6 -12 0
1 6 13 0
1 -6 -13 0
1 6 15 0
1 -6 -15 0
1 6 23 0
1 -6 -23 0
1 6 24 0
1 -6 -24 0
1 6 27 0
1 -6 -27 0
1 6 30 0
1 -6 -30 0
1 6 31 0
1 -6 -31 0
1 6 32 0
1 -6 -32 0
1 6 36 0
1 -6 -36 0
1 6 37 0
1 -6 -37 0
1 6 41 0
1 -6 -41 0
1 6 43 0
1 -6 -43 0
1 6 44 0
1 -6 -44 0
1 6 45 0
1 -6 -45 0
1 6 46 0
1 -6 -46 0
1 6 48 0
1 -6 -48 0
1 6 50 0
1 -6 -50 0
1 6 57 0
1 -6 -57 0
1 6 58 0
1 -6 -58 0
1 6 60 0
1 -6 -60 0
1 7 9 0
1 -7 -9 0
1 7 10 0
1 -7 -10 0
1 7 11 0
1 -7 -11 0
1 7 13 0
1 -7 -13 0
1 7 24 0
1 -7 -24 0
1 7 33 0
1 -7 -33 0
1 7 41 0
1 -7 -41 0
1 7 43 0
1 -7 -43 0
1 7 45 0
1 -7 -45 0
1 7 47 0
1 -7 -47 0
1 7 48 0
1 -7 -48 0
1 7 52 0
1 -7 -52 0
1 7 53 0
1 -7 -53 0
1 7 57 0
1 -7 -57 0
1 7 59 0
1 -7 -59 0
1 8 10 0
1 -8 -10 0
1 8 13 0
1 -8 -13 0
1 8 15 0
1 -8 -15 0
1 8 20 0
1 -8 -20 0
1 8 25 0
1 -8 -25 0
1 8 26 0
1 -8 -26 0
1 8 32 0
1 -8 -32 0
1 8 34 0
1 -8 -34 0
1 8 37 0
1 -8 -37 0
1 8 38 0
1 -8 -38 0
1 8 40 0
1 -8 -40 0
1 8 41 0
1 -8 -41 0
1 8 43 0
1 -8 -43 0
1 8 46 0
1 -8 -46 0
1 8 48 0
1 -8 -48 0
1 8 49 0
1 -8 -49 0
1 8 50 0
1 -8 -50 0
1 8 54 0
1 -8 -54 0
1 8 55 0
1 -8 -55 0
1 8 59 0
1 -8 -59 0
1 9 10 0
1 -9 -10 0
1 9 14 0
1 -9 -14 0
1 9 18 0
1 -9 -18 0
1 9 22 0
1 -9 -22 0
1 9 25 0
1 -9 -25 0
1 9 26 0
1 -9 -26 0
1 9 29 0
1 -9 -29 0
1 9 30 0
1 -9 -30 0
1 9 31 0
1 -9 -31 0
1 9 32 0
1 -9 -32 0
1 9 37 0
1 -9 -37 0
1 9 41 0
1 -9 -41 0
1 9 42 0
1 -9 -42 0
1 9 47 0
1 -9 -47 0
1 9 52 0
1 -9 -52 0
1 9 56 0
1 -9 -56 0
1 9 57 0
1 -9 -57 0
1 9 58 0
1 -9 -58 0
1 9 59 0
1 -9 -59 0
1 9 60 0
1 -9 -60 0
1 10 19 0
1 -10 -19 0
1 10 23 0
1 -10 -23 0
1 10 24 0
1 -10 -24 0
1 10 25 0
1 -10 -25 0
1 10 26 0
1 -10 -26 0
1 10 31 0
1 -10 -31 0
1 10 32 0
1 -10 -32 0
1 10 33 0
1 -10 -33 0
1 10 34 0
1 -10 -34 0
1 10 36 0
1 -10 -36 0
1 10 37 0
1 -10 -37 0
1 10 45 0
1 -10 -45 0
1 10 47 0
1 -10 -47 0
1 10 49 0
1 -10 -49 0
1 10 52 0
1 -10 -52 0
1 10 58 0
1 -10 -58 0
1 11 12 0
1 -11 -12 0
1 11 18 0
1 -11 -18 0
1 11 25 0
1 -11 -25 0
1 11 29 0
1 -11 -29 0
1 11 34 0
1 -11 -34 0
1 11 35 0
1 -11 -35 0
1 11 42 0
1 -11 -42 0
1 11 47 0
1 -11 -47 0
1 11 51 0
1 -11 -51 0
1 11 54 0
1 -11 -54 0
1 11 55 0
1 -11 -55 0
1 11 56 0
1 -11 -56 0
1 11 58 0
1 -11 -58 0
1 11 60 0
1 -11 -60 0
1 12 14 0
1 -12 -14 0
1 12 16 0
1 -12 -16 0
1 12 17 0
1 -12 -17 0
1 12 18 0
1 -12 -18 0
1 12 23 0
1 -12 -23 0
1 12 25 0
1 -12 -25 0
1 12 27 0
1 -12 -27 0
1 12 28 0
1 -12 -28 0
1 12 30 0
1 -12 -30 0
1 12 37 0
1 -12 -37 0
1 12 40 0
1 -12 -40 0
1 12 46 0
1 -12 -46 0
1 12 48 0
1 -12 -48 0
1 12 51 0
1 -12 -51 0
1 12 54 0
1 -12 -54 0
1 12 58 0
1 -12 -58 0
1 12 60 0
1 -12 -60 0
1 13 16 0
1 -13 -16 0
1 13 19 0
1 -13 -19 0
1 13 20 0
1 -13 -20 0
1 13 21 0
1 -13 -21 0
1 13 24 0
1 -13 -24 0
1 13 30 0
1 -13 -30 0
1 13 37 0
1 -13 -37 0
1 13 38 0
1 -13 -38 0
1 13 40 0
1 -13 -40 0
1 13 45 0
1 -13 -45 0
1 13 47 0
1 -13 -47 0
1 13 50 0
1 -13 -50 0
1 13 54 0
1 -13 -54 0
1 13 57 0
1 -13 -57 0
1 13 58 0
1 -13 -58 0
1 14 17 0
1 -14 -17 0
1 14 19 0
1 -14 -19 0
1 14 20 0
1 -14 -20 0
1 14 22 0
1 -14 -22 0
1 14 24 0
1 -14 -24 0
1 14 25 0
1 -14 -25 0
1 14 26 0
1 -14 -26 0
1 14 27 0
1 -14 -27 0
1 14 29 0
1 -14 -29 0
1 14 31 0
1 -14 -31 0
1 14 33 0
1 -14 -33 0
1 14 41 0
1 -14 -41 0
1 14 42 0
1 -14 -42 0
1 14 47 0
1 -14 -47 0
1 14 48 0
1 -14 -48 0
1 14 54 0
1 -14 -54 0
1 15 16 0
1 -15 -16 0
1 15 17 0
1 -15 -17 0
1 15 20 0
1 -15 -20 0
1 15 21 0
1 -15 -21 0
1 15 22 0
1 -15 -22 0
1 15 23 0
1 -15 -23 0
1 15 24 0
1 -15 -24 0
1 15 28 0
1 -15 -28 0
1 15 33 0
1 -15 -33 0
1 15 37 0
1 -15 -37 0
1 15 41 0
1 -15 -41 0
1 15 43 0
1 -15 -43 0
1 15 45 0
1 -15 -45 0
1 15 46 0
1 -15 -46 0
1 15 47 0
1 -15 -47 0
1 15 56 0
1 -15 -56 0
1 15 58 0
1 -15 -58 0
1 15 60 0
1 -15 -60 0
1 16 22 0
1 -16 -22 0
1 16 26 0
1 -16 -26 0
1 16 27 0
1 -16 -27 0
1 16 28 0
1 -16 -28 0
1 16 29 0
1 -16 -29 0
1 16 30 0
1 -16 -30 0
1 16 32 0
1 -16 -32 0
1 16 37 0
1 -16 -37 0
1 16 38 0
1 -16 -38 0
1 16 39 0
1 -16 -39 0
1 16 45 0
1 -16 -45 0
1 16 48 0
1 -16 -48 0
1 16 50 0
1 -16 -50 0
1 16 52 0
1 -16 -52 0
1 16 56 0
1 -16 -56 0
1 16 57 0
1 -16 -57 0
1 16 59 0
1 -16 -59 0
1 17 21 0
1 -17 -21 0
1 17 33 0
1 -17 -33 0
1 17 34 0
1 -17 -34 0
1 17 35 0
1 -17 -35 0
1 17 37 0
1 -17 -37 0
1 17 39 0
1 -17 -39 0
1 17 41 0
1 -17 -41 0
1 17 46 0
1 -17 -46 0
1 17 47 0
1 -17 -47 0
1 17 50 0
1 -17 -50 0
1 17 55 0
1 -17 -55 0
1 18 25 0
1 -18 -25 0
1 18 29 0
1 -18 -29 0
1 18 42 0
1 -18 -42 0
1 18 44 0
1 -18 -44 0
1 18 46 0
1 -18 -46 0
1 18 47 0
1 -18 -47 0
1 18 49 0
1 -18 -49 0
1 18 50 0
1 -18 -50 0
1 18 51 0
1 -18 -51 0
1 18 54 0
1 -18 -54 0
1 18 55 0
1 -18 -55 0
1 18 56 0
1 -18 -56 0
1 18 57 0
1 -18 -57 0
1 19 23 0
1 -19 -23 0
1 19 26 0
1 -19 -26 0
1 19 28 0
1 -19 -28 0
1 19 34 0
1 -19 -34 0
1 19 35 0
1 -19 -35 0
1 19 38 0
1 -19 -38 0
1 19 43 0
1 -19 -43 0
1 19 44 0
1 -19 -44 0
1 19 45 0
1 -19 -45 0
1 19 50 0
1 -19 -50 0
1 19 52 0
1 -19 -52 0
1 19 57 0
1 -19 -57 0
1 20 25 0
1 -20 -25 0
1 20 26 0
1 -20 -26 0
1 20 28 0
1 -20 -28 0
1 20 30 0
1 -20 -30 0
1 20 31 0
1 -20 -31 0
1 20 32 0
1 -20 -32 0
1 20 35 0
1 -20 -35 0
1 20 36 0
1 -20 -36 0
1 20 39 0
1 -20 -39 0
1 20 42 0
1 -20 -42 0
1 20 57 0
1 -20 -57 0
1 21 24 0
1 -21 -24 0
1 21 25 0
1 -21 -25 0
1 21 35 0
1 -21 -35 0
1 21 38 0
1 -21 -38 0
1 21 40 0
1 -21 -40 0
1 21 41 0
1 -21 -41 0
1 21 44 0
1 -21 -44 0
1 21 47 0
1 -21 -47 0
1 21 49 0
1 -21 -49 0
1 21 52 0
1 -21 -52 0
1 21 53 0
1 -21 -53 0
1 21 56 0
1 -21 -56 0
1 22 27 0
1 -22 -27 0
1 22 28 0
1 -22 -28 0
1 22 29 0
1 -22 -29 0
1 22 30 0
1 -22 -30 0
1 22 31 0
1 -22 -31 0
1 22 34 0
1 -22 -34 0
1 22 37 0
1 -22 -37 0
1 22 42 0
1 -22 -42 0
1 22 45 0
1 -22 -45 0
1 22 49 0
1 -22 -49 0
1 22 51 0
1 -22 -51 0
1 22 52 0
1 -22 -52 0
1 22 55 0
1 -22 -55 0
1 22 58 0
1 -22 -58 0
1 22 59 0
1 -22 -59 0
1 23 24 0
1 -23 -24 0
1 23 25 0
1 -23 -25 0
1 23 29 0
1 -23 -29 0
1 23 30 0
1 -23 -30 0
1 23 31 0
1 -23 -31 0
1 23 33 0
1 -23 -33 0
1 23 35 0
1 -23 -35 0
1 23 36 0
1 -23 -36 0
1 23 45 0
1 -23 -45 0
1 23 56 0
1 -23 -56 0
1 23 57 0
1 -23 -57 0
1 23 59 0
1 -23 -59 0
1 24 25 0
1 -24 -25 0
1 24 29 0
1 -24 -29 0
1 24 35 0
1 -24 -35 0
1 24 39 0
1 -24 -39 0
1 24 40 0
1 -24 -40 0
1 24 41 0
1 -24 -41 0
1 24 42 0
1 -24 -42 0
1 24 46 0
1 -24 -46 0
1 24 47 0
1 -24 -47 0
1 24 54 0
1 -24 -54 0
1 24 55 0
1 -24 -55 0
1 25 27 0
1 -25 -27 0
1 25 28 0
1 -25 -28 0
1 25 30 0
1 -25 -30 0
1 25 32 0
1 -25 -32 0
1 25 33 0
1 -25 -33 0
1 25 35 0
1 -25 -35 0
1 25 36 0
1 -25 -36 0
1 25 39 0
1 -25 -39 0
1 25 40 0
1 -25 -40 0
1 25 43 0
1 -25 -43 0
1 25 49 0
1 -25 -49 0
1 25 51 0
1 -25 -51 0
1 25 58 0
1 -25 -58 0
1 26 29 0
1 -26 -29 0
1 26 42 0
1 -26 -42 0
1 26 49 0
1 -26 -49 0
1 26 51 0
1 -26 -51 0
1 26 53 0
1 -26 -53 0
1 26 54 0
1 -26 -54 0
1 26 55 0
1 -26 -55 0
1 26 58 0
1 -26 -58 0
1 27 29 0
1 -27 -29 0
1 27 30 0
1 -27 -30 0
1 27 31 0
1 -27 -31 0
1 27 32 0
1 -27 -32 0
1 27 35 0
1 -27 -35 0
1 27 37 0
1 -27 -37 0
1 27 40 0
1 -27 -40 0
1 27 41 0
1 -27 -41 0
1 27 43 0
1 -27 -43 0
1 27 44 0
1 -27 -44 0
1 27 48 0
1 -27 -48 0
1 27 49 0
1 -27 -49 0
1 27 50 0
1 -27 -50 0
1 27 51 0
1 -27 -51 0
1 27 54 0
1 -27 -54 0
1 27 57 0
1 -27 -57 0
1 27 58 0
1 -27 -58 0
1 27 60 0
1 -27 -60 0
1 28 30 0
1 -28 -30 0
1 28 34 0
1 -28 -34 0
1 28 35 0
1 -28 -35 0
1 28 39 0
1 -28 -39 0
1 28 40 0
1 -28 -40 0
1 28 42 0
1 -28 -42 0
1 28 47 0
1 -28 -47 0
1 28 49 0
1 -28 -49 0
1 28 51 0
1 -28 -51 0
1 28 52 0
1 -28 -52 0
1 28 54 0
1 -28 -54 0
1 28 55 0
1 -28 -55 0
1 29 31 0
1 -29 -31 0
1 29 32 0
1 -29 -32 0
1 29 35 0
1 -29 -35 0
1 29 42 0
1 -29 -42 0
1 29 47 0
1 -29 -47 0
1 29 48 0
1 -29 -48 0
1 29 53 0
1 -29 -53 0
1 29 55 0
1 -29 -55 0
1 29 57 0
1 -29 -57 0
1 29 58 0
1 -29 -58 0
1 29 60 0
1 -29 -60 0
1 30 34 0
1 -30 -34 0
1 30 35 0
1 -30 -35 0
1 30 36 0
1 -30 -36 0
1 30 42 0
1 -30 -42 0
1 30 45 0
1 -30 -45 0
1 30 48 0
1 -30 -48 0
1 30 50 0
1 -30 -50 0
1 30 52 0
1 -30 -52 0
1 30 54 0
1 -30 -54 0
1 30 55 0
1 -30 -55 0
1 30 57 0
1 -30 -57 0
1 31 33 0
1 -31 -33 0
1 31 35 0
1 -31 -35 0
1 31 37 0
1 -31 -37 0
1 31 38 0
1 -31 -38 0
1 31 41 0
1 -31 -41 0
1 31 46 0
1 -31 -46 0
1 31 47 0
1 -31 -47 0
1 31 49 0
1 -31 -49 0
1 31 53 0
1 -31 -53 0
1 31 57 0
1 -31 -57 0
1 32 34 0
1 -32 -34 0
1 32 37 0
1 -32 -37 0
1 32 41 0
1 -32 -41 0
1 32 47 0
1 -32 -47 0
1 32 48 0
1 -32 -48 0
1 32 49 0
1 -32 -49 0
1 32 50 0
1 -32 -50 0
1 32 52 0
1 -32 -52 0
1 32 57 0
1 -32 -57 0
1 33 38 0
1 -33 -38 0
1 33 41 0
1 -33 -41 0
1 33 42 0
1 -33 -42 0
1 33 45 0
1 -33 -45 0
1 33 46 0
1 -33 -46 0
1 33 51 0
1 -33 -51 0
1 33 54 0
1 -33 -54 0
1 33 56 0
1 -33 -56 0
1 33 60 0
1 -33 -60 0
1 34 36 0
1 -34 -36 0
1 34 37 0
1 -34 -37 0
1 34 39 0
1 -34 -39 0
1 34 48 0
1 -34 -48 0
1 34 50 0
1 -34 -50 0
1 34 52 0
1 -34 -52 0
1 34 53 0
1 -34 -53 0
1 34 54 0
1 -34 -54 0
1 34 57 0
1 -34 -57 0
1 34 59 0
1 -34 -59 0
1 34 60 0
1 -34 -60 0
1 35 39 0
1 -35 -39 0
1 35 40 0
1 -35 -40 0
1 35 43 0
1 -35 -43 0
1 35 45 0
1 -35 -45 0
1 35 46 0
1 -35 -46 0
1 35 47 0
1 -35 -47 0
1 35 49 0
1 -35 -49 0
1 35 52 0
1 -35 -52 0
1 35 58 0
1 -35 -58 0
1 36 37 0
1 -36 -37 0
1 36 38 0
1 -36 -38 0
1 36 46 0
1 -36 -46 0
1 36 50 0
1 -36 -50 0
1 36 52 0
1 -36 -52 0
1 37 45 0
1 -37 -45 0
1 37 46 0
1 -37 -46 0
1 37 49 0
1 -37 -49 0
1 37 50 0
1 -37 -50 0
1 37 52 0
1 -37 -52 0
1 37 57 0
1 -37 -57 0
1 37 59 0
1 -37 -59 0
1 37 60 0
1 -37 -60 0
1 38 39 0
1 -38 -39 0
1 38 43 0
1 -38 -43 0
1 38 47 0
1 -38 -47 0
1 38 53 0
1 -38 -53 0
1 38 56 0
1 -38 -56 0
1 38 57 0
1 -38 -57 0
1 38 58 0
1 -38 -58 0
1 38 59 0
1 -38 -59 0
1 39 41 0
1 -39 -41 0
1 39 42 0
1 -39 -42 0
1 39 43 0
1 -39 -43 0
1 39 46 0
1 -39 -46 0
1 39 48 0
1 -39 -48 0
1 39 51 0
1 -39 -51 0
1 39 54 0
1 -39 -54 0
1 39 57 0
1 -39 -57 0
1 40 41 0
1 -40 -41 0
1 40 44 0
1 -40 -44 0
1 40 55 0
1 -40 -55 0
1 40 60 0
1 -40 -60 0
1 41 47 0
1 -41 -47 0
1 41 50 0
1 -41 -50 0
1 41 53 0
1 -41 -53 0
1 41 57 0
1 -41 -57 0
1 41 58 0
1 -41 -58 0
1 41 60 0
1 -41 -60 0
1 42 43 0
1 -42 -43 0
1 42 44 0
1 -42 -44 0
1 42 46 0
1 -42 -46 0
1 42 47 0
1 -42 -47 0
1 42 51 0
1 -42 -51 0
1 42 53 0
1 -42 -53 0
1 42 56 0
1 -42 -56 0
1 42 58 0
1 -42 -58 0
1 42 60 0
1 -42 -60 0
1 43 45 0
1 -43 -45 0
1 43 47 0
1 -43 -47 0
1 43 48 0
1 -43 -48 0
1 43 49 0
1 -43 -49 0
1 43 50 0
1 -43 -50 0
1 43 51 0
1 -43 -51 0
1 43 55 0
1 -43 -55 0
1 43 57 0
1 -43 -57 0
1 43 60 0
1 -43 -60 0
1 44 45 0
1 -44 -45 0
1 44 47 0
1 -44 -47 0
1 44 48 0
1 -44 -48 0
1 44 52 0
1 -44 -52 0
1 44 58 0
1 -44 -58 0
1 44 59 0
1 -44 -59 0
1 45 47 0
1 -45 -47 0
1 45 48 0
1 -45 -48 0
1 45 50 0
1 -45 -50 0
1 45 52 0
1 -45 -52 0
1 45 54 0
1 -45 -54 0
1 45 57 0
1 -45 -57 0
1 45 60 0
1 -45 -60 0
1 46 51 0
1 -46 -51 0
1 46 54 0
1 -46 -54 0
1 46 55 0
1 -46 -55 0
1 47 49 0
1 -47 -49 0
1 47 50 0
1 -47 -50 0
1 47 51 0
1 -47 -51 0
1 47 53 0
1 -47 -53 0
1 47 57 0
1 -47 -57 0
1 48 49 0
1 -48 -49 0
1 48 53 0
1 -48 -53 0
1 48 56 0
1 -48 -56 0
1 48 59 0
1 -48 -59 0
1 49 52 0
1 -49 -52 0
1 49 54 0
1 -49 -54 0
1 49 55 0
1 -49 -55 0
1 49 58 0
1 -49 -58 0
1 49 59 0
1 -49 -59 0
1 50 51 0
1 -50 -51 0
1 50 53 0
1 -50 -53 0
1 50 58 0
1 -50 -58 0
1 51 54 0
1 -51 -54 0
1 51 56 0
1 -51 -56 0
1 51 58 0
1 -51 -58 0
1 51 59 0
1 -51 -59 0
1 52 56 0
1 -52 -56 0
1 52 58 0
1 -52 -58 0
1 53 56 0
1 -53 -56 0
1 53 59 0
1 -53 -59 0
1 54 56 0
1 -54 -56 0
1 54 58 0
1 -54 -58 0
1 55 57 0
1 -55 -57 0
1 56 58 0
1 -56 -58 0
1 57 58 0
1 -57 -58 0
